17 4 8 2 3 1 14 11 16 6 5 18 7 19 12 10 13 9 0 15  
17 4 8 2 3 1 9 0 16 14 13 11 15 6 7 19 5 18 12 10  
17 4 8 9 3 1 2 16 13 11 14 6 0 5 7 18 12 19 10 15  
17 3 1 8 9 4 2 16 18 13 11 6 0 5 7 19 12 14 15 10  
17 3 1 8 9 4 18 16 2 13 11 6 0 5 7 19 12 14 15 10  
17 3 1 8 9 4 2 16 14 13 11 6 5 0 15 7 18 19 12 10  
17 4 3 1 8 9 13 11 16 2 0 6 15 7 19 14 10 5 18 12  
17 4 8 2 3 1 9 16 14 0 11 6 5 15 7 18 13 19 10 12  
17 4 8 2 3 1 9 16 14 0 11 6 5 18 7 19 13 12 10 15  
17 4 8 2 3 1 14 11 16 6 5 18 7 19 12 10 13 9 0 15  
17 4 8 2 3 1 9 16 14 0 11 6 5 15 7 18 13 19 10 12  
17 4 8 2 3 1 9 16 14 13 6 5 18 7 19 11 12 10 0 15  
17 3 1 8 9 4 2 16 18 13 11 6 5 0 15 7 19 14 12 10  
17 4 8 2 16 1 9 3 13 11 18 0 6 15 7 19 14 10 5 12  
17 4 8 2 16 1 9 3 14 13 11 6 5 12 7 19 18 10 15 0  
17 4 8 2 3 1 9 16 14 0 11 6 5 12 7 19 13 18 15 10  
17 4 8 2 3 1 9 16 14 0 11 6 5 15 7 18 13 19 10 12  
17 4 8 11 16 2 3 1 10 14 6 0 5 15 7 19 13 12 9 18  
17 4 8 9 3 1 2 16 14 0 11 6 13 15 7 18 19 5 12 10  
17 4 8 9 3 1 2 16 14 0 11 6 5 15 7 18 13 19 10 12  
17 3 1 8 9 4 2 16 18 13 11 6 5 0 15 7 12 14 19 10  
17 4 8 9 3 1 2 16 18 0 11 6 5 13 7 19 14 15 10 12  
17 4 8 2 16 1 9 3 14 13 11 6 0 5 7 18 12 19 15 10  
17 4 8 2 3 1 9 16 14 0 11 6 13 15 7 19 10 5 12 18  
17 4 8 2 3 1 9 16 14 0 11 6 5 18 7 19 13 12 15 10  
17 4 8 9 3 1 2 16 18 0 11 6 5 13 7 15 19 14 10 12  
17 4 8 2 3 1 9 16 14 13 6 5 18 7 19 10 12 11 0 15  
17 4 8 2 1 11 16 9 3 13 14 6 5 18 7 12 19 10 0 15  
17 4 8 2 3 1 9 16 14 0 11 6 5 18 7 19 15 10 13 12  
17 4 8 9 3 1 2 16 14 0 11 6 13 15 7 18 19 5 12 10  
17 4 8 9 3 1 2 16 14 13 11 6 0 5 7 18 12 19 15 10  
